Version identifier: 12.10.0.0 | 2019-11-26 | 843d4de
CPXPARAM_WorkMem                                 28672
Tried aggregator 2 times.
Aggregator did 60 substitutions.
Reduced MIP has 203 rows, 240 columns, and 945 nonzeros.
Reduced MIP has 240 binaries, 0 generals, 0 SOSs, and 0 indicators.
Presolve time = 0,00 sec. (0,91 ticks)
Found incumbent of value 180,000000 after 0,00 sec. (1,48 ticks)
Probing time = 0,00 sec. (0,34 ticks)
Tried aggregator 1 time.
Detecting symmetries...
MIP Presolve eliminated 36 rows and 0 columns.
MIP Presolve added 72 rows and 0 columns.
Reduced MIP has 239 rows, 240 columns, and 981 nonzeros.
Reduced MIP has 240 binaries, 0 generals, 0 SOSs, and 0 indicators.
Presolve time = 0,00 sec. (1,20 ticks)
Probing time = 0,00 sec. (0,33 ticks)
Clique table members: 665.
MIP emphasis: balance optimality and feasibility.
MIP search method: dynamic search.
Parallel mode: deterministic, using up to 16 threads.
Root relaxation solution time = 0,00 sec. (0,67 ticks)

        Nodes                                         Cuts/
   Node  Left     Objective  IInf  Best Integer    Best Bound    ItCnt     Gap

*     0+    0                          180,0000        0,0000           100,00%
*     0+    0                          130,0000        0,0000           100,00%
*     0+    0                          127,0000        0,0000           100,00%
      0     0       60,0000   156      127,0000       60,0000       73   52,76%
*     0+    0                          123,0000       60,0000            51,22%
      0     0       60,0000   156      123,0000     Cuts: 159      132   51,22%
      0     0       60,0000   156      123,0000     Cuts: 159      224   51,22%
      0     0       60,0344   156      123,0000     Cuts: 159      292   51,19%
      0     0       60,2634   156      123,0000     Cuts: 159      308   51,01%
      0     0       60,3797   156      123,0000     Cuts: 118      321   50,91%
      0     0       65,7709   156      123,0000     Cuts: 159      401   46,53%
      0     0       66,1797   156      123,0000     Cuts: 159      446   46,20%
      0     0       66,8299   156      123,0000     Cuts: 159      498   45,67%
      0     0       66,8603   156      123,0000  ZeroHalf: 10      517   45,64%
      0     0       66,9868   156      123,0000     Cuts: 122      579   45,54%
      0     0       67,1623   156      123,0000     Cuts: 128      645   45,40%
      0     0       67,1961   156      123,0000       Cuts: 3      656   45,37%
      0     0       67,2504   156      123,0000      Cuts: 20      687   45,32%
*     0+    0                          116,0000       67,2504            42,03%
      0     0       67,3265   156      116,0000      Cuts: 49      717   39,02%
      0     2       67,3265   227      116,0000       70,7417      717   39,02%
Elapsed time = 0,23 sec. (127,35 ticks, tree = 0,02 MB, solutions = 5)
*  1769+ 1060                          115,0000       94,0287            18,24%
   3905  2151        cutoff            115,0000      100,2105   102157   12,86%

Performing restart 1

Repeating presolve.
Tried aggregator 2 times.
MIP Presolve eliminated 14 rows and 13 columns.
MIP Presolve modified 18 coefficients.
Aggregator did 2 substitutions.
Reduced MIP has 223 rows, 225 columns, and 895 nonzeros.
Reduced MIP has 225 binaries, 0 generals, 0 SOSs, and 0 indicators.
Presolve time = 0,00 sec. (0,90 ticks)
Tried aggregator 1 time.
Reduced MIP has 223 rows, 225 columns, and 895 nonzeros.
Reduced MIP has 225 binaries, 0 generals, 0 SOSs, and 0 indicators.
Presolve time = 0,00 sec. (0,71 ticks)
Represolve time = 0,01 sec. (8,78 ticks)
   6731     0       67,5972   225      115,0000       Cuts: 7   196433    9,41%
   6731     0       68,0596   225      115,0000       Cuts: 7   196515    9,41%
   6731     0       68,3685   225      115,0000       Cuts: 5   196571    9,41%
   6731     0       68,7285   225      115,0000      Cuts: 11   196604    9,41%
   6731     2       68,7285   225      115,0000      104,1802   196604    9,41%
   8705  1470      105,6045   145      115,0000      104,1802   236638    9,41%
  11987  3657        cutoff            115,0000      104,1802   314750    9,41%
  15094  5637      107,9689   142      115,0000      104,1802   397037    9,41%

Performing restart 2

Repeating presolve.
Tried aggregator 1 time.
Reduced MIP has 223 rows, 225 columns, and 895 nonzeros.
Reduced MIP has 225 binaries, 0 generals, 0 SOSs, and 0 indicators.
Presolve time = 0,00 sec. (0,53 ticks)
Tried aggregator 1 time.
Reduced MIP has 223 rows, 225 columns, and 895 nonzeros.
Reduced MIP has 225 binaries, 0 generals, 0 SOSs, and 0 indicators.
Presolve time = 0,00 sec. (0,71 ticks)
Represolve time = 0,02 sec. (15,17 ticks)
  15377     0       69,6091   225      115,0000      Cuts: 20   422635    9,41%
  15377     0       69,8806   225      115,0000       Cuts: 9   422688    9,41%
  15377     0       70,0706   225      115,0000       Cuts: 8   422738    9,41%
  15377     0       70,4475   225      115,0000      Cuts: 13   422804    9,41%
  15377     0       70,6598   225      115,0000       Cuts: 9   422866    9,41%
  15377     0       70,7717   225      115,0000       Cuts: 7   422917    9,41%
  15377     0       70,7741   225      115,0000   ZeroHalf: 3   422920    9,41%
  15377     2       70,7741   225      115,0000      104,1802   422920    9,41%
  19220  1961        cutoff            115,0000      104,1802   524489    9,41%
  23538  2265        cutoff            115,0000      108,1582   645998    5,95%
* 24512  1837      integral     0      114,0000      109,4857   677196    3,96%

Clique cuts applied:  102
Cover cuts applied:  326
Flow cuts applied:  6
Mixed integer rounding cuts applied:  46
Zero-half cuts applied:  8
Gomory fractional cuts applied:  26

Root node processing (before b&c):
  Real time             =    0,22 sec. (126,95 ticks)
Parallel b&c, 16 threads:
  Real time             =    3,06 sec. (2320,28 ticks)
  Sync time (average)   =    0,81 sec.
  Wait time (average)   =    0,02 sec.
                          ------------
Total (root+branch&cut) =    3,29 sec. (2447,22 ticks)
